Welcome to the CBC MILP Solver 
Version: 2.10.7 
Build Date: Feb 14 2022 

command line - cbc inputs/new_tr/order/jump_3_40_up_right_input.lp sec 1800 solve solu solutions/new_tr/jump_3_40_up_right_input.lp (default strategy 1)
seconds was changed from 1e+100 to 1800
Continuous objective value is 41757.3 - 2.40 seconds
Cgl0002I 403 variables fixed
Cgl0003I 0 fixed, 1 tightened bounds, 799 strengthened rows, 0 substitutions
Cgl0003I 0 fixed, 0 tightened bounds, 181 strengthened rows, 0 substitutions
Cgl0003I 0 fixed, 0 tightened bounds, 7 strengthened rows, 0 substitutions
Cgl0003I 0 fixed, 0 tightened bounds, 2 strengthened rows, 0 substitutions
Cgl0004I processed model has 4657 rows, 1399 columns (1399 integer (1358 of which binary)) and 15832 elements
Cutoff increment increased from 1e-05 to 0.9999
Cbc0045I 1 integer variables out of 1399 objects (1399 integer) have cost of 1 - high priority
Cbc0045I branch on satisfied Y create fake objective Y random cost Y
Cbc0038I Initial state - 832 integers unsatisfied sum - 216.337
Cbc0038I Pass   1: (3.94 seconds) suminf.   94.24499 (550) obj. 66182.9 iterations 2770
Cbc0038I Pass   2: (4.13 seconds) suminf.   79.28670 (498) obj. 72341.1 iterations 811
Cbc0038I Pass   3: (4.17 seconds) suminf.   81.13896 (483) obj. 72088.9 iterations 146
Cbc0038I Pass   4: (4.34 seconds) suminf.   69.32776 (468) obj. 71679.4 iterations 707
Cbc0038I Pass   5: (4.42 seconds) suminf.   63.69204 (484) obj. 71592.3 iterations 313
Cbc0038I Pass   6: (4.53 seconds) suminf.   61.78243 (449) obj. 71464.1 iterations 405
Cbc0038I Pass   7: (4.64 seconds) suminf.   59.56448 (429) obj. 71214.8 iterations 472
Cbc0038I Pass   8: (4.79 seconds) suminf.   53.98669 (383) obj. 73702.1 iterations 637
Cbc0038I Pass   9: (4.84 seconds) suminf.   52.38571 (384) obj. 74996.6 iterations 191
Cbc0038I Pass  10: (4.93 seconds) suminf.   53.23185 (379) obj. 76165.8 iterations 346
Cbc0038I Pass  11: (5.03 seconds) suminf.   47.16283 (366) obj. 73386 iterations 440
Cbc0038I Pass  12: (5.09 seconds) suminf.   45.71971 (363) obj. 72514.3 iterations 212
Cbc0038I Pass  13: (5.15 seconds) suminf.   46.89199 (347) obj. 72458.1 iterations 256
Cbc0038I Pass  14: (5.24 seconds) suminf.   44.59439 (346) obj. 72655.5 iterations 366
Cbc0038I Pass  15: (5.28 seconds) suminf.   44.52580 (351) obj. 72892.9 iterations 151
Cbc0038I Pass  16: (5.30 seconds) suminf.   45.36015 (341) obj. 72670.3 iterations 79
Cbc0038I Pass  17: (5.31 seconds) suminf.   45.15882 (342) obj. 72597.6 iterations 30
Cbc0038I Pass  18: (5.38 seconds) suminf.   45.47307 (335) obj. 73054.1 iterations 291
Cbc0038I Pass  19: (5.45 seconds) suminf.   44.38181 (348) obj. 74554.9 iterations 233
Cbc0038I Pass  20: (5.53 seconds) suminf.   41.98018 (357) obj. 75932.6 iterations 344
Cbc0038I Pass  21: (5.56 seconds) suminf.   40.85506 (353) obj. 75456.5 iterations 98
Cbc0038I Pass  22: (5.56 seconds) suminf.   40.19315 (356) obj. 75541.6 iterations 20
Cbc0038I Pass  23: (5.68 seconds) suminf.   38.32206 (336) obj. 79057.6 iterations 577
Cbc0038I Pass  24: (5.71 seconds) suminf.   37.07472 (342) obj. 79267.7 iterations 87
Cbc0038I Pass  25: (5.82 seconds) suminf.   33.96724 (354) obj. 78207.6 iterations 559
Cbc0038I Pass  26: (5.89 seconds) suminf.   30.88084 (353) obj. 78125.2 iterations 285
Cbc0038I Pass  27: (5.98 seconds) suminf.   33.26777 (352) obj. 77749.9 iterations 405
Cbc0038I Pass  28: (6.04 seconds) suminf.   32.36213 (348) obj. 78547 iterations 228
Cbc0038I Pass  29: (6.17 seconds) suminf.   28.61263 (333) obj. 77689.4 iterations 584
Cbc0038I Pass  30: (6.27 seconds) suminf.   26.26635 (316) obj. 80124.6 iterations 509
Cbc0038I Pass  31: (6.41 seconds) suminf.   22.21719 (282) obj. 83471.9 iterations 690
Cbc0038I Pass  32: (6.47 seconds) suminf.   22.32925 (307) obj. 83554.1 iterations 266
Cbc0038I Pass  33: (6.62 seconds) suminf.   20.40978 (254) obj. 83277.1 iterations 818
Cbc0038I Pass  34: (6.69 seconds) suminf.   19.08840 (266) obj. 83469.1 iterations 294
Cbc0038I Pass  35: (6.75 seconds) suminf.   18.13844 (205) obj. 83254.9 iterations 303
Cbc0038I Pass  36: (6.77 seconds) suminf.   18.24987 (225) obj. 83227.8 iterations 81
Cbc0038I Pass  37: (6.84 seconds) suminf.   23.27297 (214) obj. 82983.5 iterations 360
Cbc0038I Pass  38: (6.88 seconds) suminf.   20.90077 (207) obj. 82939.7 iterations 169
Cbc0038I Pass  39: (6.96 seconds) suminf.   15.92534 (180) obj. 83147 iterations 386
Cbc0038I Pass  40: (6.98 seconds) suminf.   16.18154 (185) obj. 83136.5 iterations 112
Cbc0038I Pass  41: (7.04 seconds) suminf.   19.45966 (192) obj. 82270.8 iterations 285
Cbc0038I Pass  42: (7.07 seconds) suminf.   18.77738 (194) obj. 82343.8 iterations 117
Cbc0038I Pass  43: (7.09 seconds) suminf.   16.97885 (199) obj. 83057.8 iterations 113
Cbc0038I Pass  44: (7.10 seconds) suminf.   17.12786 (196) obj. 83057.4 iterations 35
Cbc0038I Pass  45: (7.20 seconds) suminf.   18.07652 (182) obj. 78224.7 iterations 548
Cbc0038I Pass  46: (7.22 seconds) suminf.   16.36800 (174) obj. 77897.3 iterations 118
Cbc0038I Pass  47: (7.23 seconds) suminf.   16.24317 (174) obj. 77897.3 iterations 13
Cbc0038I Pass  48: (7.32 seconds) suminf.   20.20516 (189) obj. 77782.2 iterations 460
Cbc0038I Pass  49: (7.37 seconds) suminf.   15.07727 (166) obj. 77824 iterations 267
Cbc0038I Pass  50: (7.39 seconds) suminf.   14.98767 (162) obj. 77824 iterations 81
Cbc0038I Pass  51: (7.45 seconds) suminf.   12.61635 (148) obj. 77824 iterations 332
Cbc0038I Pass  52: (7.51 seconds) suminf.    6.93327 (123) obj. 77824 iterations 313
Cbc0038I Pass  53: (7.52 seconds) suminf.    6.86258 (110) obj. 77824 iterations 28
Cbc0038I Pass  54: (7.65 seconds) suminf.    4.84345 (82) obj. 77824 iterations 815
Cbc0038I Pass  55: (7.93 seconds) suminf.    4.65386 (32) obj. 77824 iterations 1607
Cbc0038I Pass  56: (7.93 seconds) suminf.    3.11202 (33) obj. 77824 iterations 23
Cbc0038I Pass  57: (8.05 seconds) suminf.    2.82074 (29) obj. 77824 iterations 544
Cbc0038I Pass  58: (8.07 seconds) suminf.    2.40200 (31) obj. 77824 iterations 95
Cbc0038I Pass  59: (8.10 seconds) suminf.    4.25863 (32) obj. 77824 iterations 183
Cbc0038I Pass  60: (8.11 seconds) suminf.    2.80546 (27) obj. 77824 iterations 22
Cbc0038I Pass  61: (8.13 seconds) suminf.    3.71883 (32) obj. 77824 iterations 114
Cbc0038I Pass  62: (8.14 seconds) suminf.    3.71883 (32) obj. 77824 iterations 8
Cbc0038I Pass  63: (8.20 seconds) suminf.    2.75060 (27) obj. 77824 iterations 378
Cbc0038I Pass  64: (8.23 seconds) suminf.    1.59023 (18) obj. 77824 iterations 160
Cbc0038I Pass  65: (8.25 seconds) suminf.    1.63084 (24) obj. 77824 iterations 89
Cbc0038I Pass  66: (8.27 seconds) suminf.    3.44834 (31) obj. 77824 iterations 152
Cbc0038I Pass  67: (8.28 seconds) suminf.    3.32124 (31) obj. 77824 iterations 30
Cbc0038I Pass  68: (8.36 seconds) suminf.    3.03333 (12) obj. 77824 iterations 415
Cbc0038I Pass  69: (8.46 seconds) suminf.    0.00000 (0) obj. 77824 iterations 555
Cbc0038I Solution found of 77824
Cbc0038I Cleaned solution of 77824
Cbc0038I Before mini branch and bound, 276 integers at bound fixed and 0 continuous
Cbc0038I Mini branch and bound did not improve solution (8.52 seconds)
Cbc0038I Round again with cutoff of 74246.1
Cbc0038I Pass  70: (8.53 seconds) suminf.   94.24499 (550) obj. 66182.9 iterations 0
Cbc0038I Pass  71: (8.72 seconds) suminf.   79.28670 (498) obj. 72341.1 iterations 906
Cbc0038I Pass  72: (8.76 seconds) suminf.   81.13896 (483) obj. 72088.9 iterations 147
Cbc0038I Pass  73: (8.90 seconds) suminf.   70.36658 (474) obj. 73124.7 iterations 659
Cbc0038I Pass  74: (9.03 seconds) suminf.   62.61454 (462) obj. 73897.3 iterations 601
Cbc0038I Pass  75: (9.05 seconds) suminf.   62.37770 (450) obj. 73682.5 iterations 36
Cbc0038I Pass  76: (9.11 seconds) suminf.   61.93070 (424) obj. 73761 iterations 245
Cbc0038I Pass  77: (9.22 seconds) suminf.   58.08643 (440) obj. 73992.3 iterations 503
Cbc0038I Pass  78: (9.29 seconds) suminf.   57.45807 (433) obj. 73859 iterations 230
Cbc0038I Pass  79: (9.31 seconds) suminf.   57.04214 (429) obj. 73859.8 iterations 75
Cbc0038I Pass  80: (9.42 seconds) suminf.   53.25484 (412) obj. 73726.5 iterations 529
Cbc0038I Pass  81: (9.48 seconds) suminf.   48.32537 (383) obj. 72061 iterations 244
Cbc0038I Pass  82: (9.53 seconds) suminf.   48.41116 (374) obj. 72000.6 iterations 191
Cbc0038I Pass  83: (9.58 seconds) suminf.   49.45159 (386) obj. 72349.1 iterations 190
Cbc0038I Pass  84: (9.61 seconds) suminf.   47.87327 (386) obj. 74246.1 iterations 94
Cbc0038I Pass  85: (9.62 seconds) suminf.   47.44488 (407) obj. 74246.1 iterations 44
Cbc0038I Pass  86: (9.68 seconds) suminf.   44.36349 (375) obj. 74246.1 iterations 262
Cbc0038I Pass  87: (9.72 seconds) suminf.   44.16875 (377) obj. 74246.1 iterations 150
Cbc0038I Pass  88: (9.76 seconds) suminf.   43.41539 (358) obj. 74246.1 iterations 156
Cbc0038I Pass  89: (9.83 seconds) suminf.   45.01031 (372) obj. 74246.1 iterations 325
Cbc0038I Pass  90: (9.88 seconds) suminf.   43.78959 (339) obj. 74246.1 iterations 229
Cbc0038I Pass  91: (9.95 seconds) suminf.   43.38577 (345) obj. 74246.1 iterations 304
Cbc0038I Pass  92: (9.98 seconds) suminf.   42.48623 (330) obj. 74246.1 iterations 116
Cbc0038I Pass  93: (10.06 seconds) suminf.   42.07619 (373) obj. 74246.1 iterations 349
Cbc0038I Pass  94: (10.09 seconds) suminf.   38.56927 (398) obj. 74246.1 iterations 113
Cbc0038I Pass  95: (10.09 seconds) suminf.   38.56927 (398) obj. 74246.1 iterations 3
Cbc0038I Pass  96: (10.17 seconds) suminf.   38.17926 (389) obj. 74246.1 iterations 340
Cbc0038I Pass  97: (10.23 seconds) suminf.   35.34508 (378) obj. 74246.1 iterations 231
Cbc0038I Pass  98: (10.29 seconds) suminf.   35.30032 (379) obj. 74246.1 iterations 281
Cbc0038I Pass  99: (10.31 seconds) suminf.   35.80313 (376) obj. 74246.1 iterations 46
Cbc0038I Pass 100: (10.38 seconds) suminf.   33.24824 (383) obj. 74246.1 iterations 344
Cbc0038I Pass 101: (10.42 seconds) suminf.   32.84175 (378) obj. 74246.1 iterations 145
Cbc0038I Pass 102: (10.48 seconds) suminf.   34.55006 (348) obj. 74246.1 iterations 263
Cbc0038I Pass 103: (10.52 seconds) suminf.   34.47003 (365) obj. 74246.1 iterations 163
Cbc0038I Pass 104: (10.59 seconds) suminf.   32.92728 (363) obj. 74246.1 iterations 271
Cbc0038I Pass 105: (10.63 seconds) suminf.   32.84274 (360) obj. 74246.1 iterations 176
Cbc0038I Pass 106: (10.71 seconds) suminf.   34.02453 (361) obj. 74246.1 iterations 358
Cbc0038I Pass 107: (10.73 seconds) suminf.   33.61398 (353) obj. 74246.1 iterations 92
Cbc0038I Pass 108: (10.75 seconds) suminf.   33.54887 (349) obj. 74246.1 iterations 67
Cbc0038I Pass 109: (10.83 seconds) suminf.   32.96993 (383) obj. 74246.1 iterations 384
Cbc0038I Pass 110: (10.89 seconds) suminf.   31.36981 (373) obj. 74246.1 iterations 303
Cbc0038I Pass 111: (10.97 seconds) suminf.   30.93951 (352) obj. 74246.1 iterations 312
Cbc0038I Pass 112: (10.99 seconds) suminf.   30.69312 (362) obj. 74246.1 iterations 86
Cbc0038I Pass 113: (11.01 seconds) suminf.   30.28743 (358) obj. 74246.1 iterations 60
Cbc0038I Pass 114: (11.09 seconds) suminf.   31.75608 (364) obj. 74246.1 iterations 349
Cbc0038I Pass 115: (11.15 seconds) suminf.   31.03944 (384) obj. 74246.1 iterations 272
Cbc0038I Pass 116: (11.28 seconds) suminf.   31.10816 (354) obj. 74246.1 iterations 603
Cbc0038I Pass 117: (11.37 seconds) suminf.   28.30544 (364) obj. 74246.1 iterations 431
Cbc0038I Pass 118: (11.51 seconds) suminf.   30.20920 (351) obj. 74246.1 iterations 642
Cbc0038I Pass 119: (11.57 seconds) suminf.   28.98258 (344) obj. 74246.1 iterations 254
Cbc0038I Pass 120: (11.59 seconds) suminf.   29.11618 (351) obj. 74246.1 iterations 81
Cbc0038I Pass 121: (11.69 seconds) suminf.   29.35177 (265) obj. 74246.1 iterations 514
Cbc0038I Pass 122: (11.76 seconds) suminf.   25.96305 (258) obj. 74246.1 iterations 309
Cbc0038I Pass 123: (11.80 seconds) suminf.   25.75009 (261) obj. 74246.1 iterations 177
Cbc0038I Pass 124: (11.89 seconds) suminf.   24.96342 (268) obj. 74246.1 iterations 421
Cbc0038I Pass 125: (11.92 seconds) suminf.   23.96311 (281) obj. 74246.1 iterations 147
Cbc0038I Pass 126: (12.01 seconds) suminf.   25.09179 (255) obj. 74246.1 iterations 473
Cbc0038I Pass 127: (12.07 seconds) suminf.   21.15078 (253) obj. 74246.1 iterations 284
Cbc0038I Pass 128: (12.09 seconds) suminf.   20.92871 (269) obj. 74246.1 iterations 91
Cbc0038I Pass 129: (12.18 seconds) suminf.   20.94469 (226) obj. 74246.1 iterations 447
Cbc0038I Pass 130: (12.22 seconds) suminf.   18.52009 (232) obj. 74246.1 iterations 168
Cbc0038I Pass 131: (12.25 seconds) suminf.   17.59477 (222) obj. 74246.1 iterations 172
Cbc0038I Pass 132: (12.26 seconds) suminf.   17.14939 (223) obj. 74246.1 iterations 19
Cbc0038I Pass 133: (12.38 seconds) suminf.   16.12227 (181) obj. 74246.1 iterations 750
Cbc0038I Pass 134: (12.41 seconds) suminf.   15.21215 (184) obj. 74246.1 iterations 174
Cbc0038I Pass 135: (12.50 seconds) suminf.   14.19665 (195) obj. 74246.1 iterations 517
Cbc0038I Pass 136: (12.52 seconds) suminf.   13.86383 (210) obj. 74246.1 iterations 109
Cbc0038I Pass 137: (12.62 seconds) suminf.   12.62412 (156) obj. 74246.1 iterations 662
Cbc0038I Pass 138: (12.65 seconds) suminf.   12.38344 (168) obj. 74246.1 iterations 188
Cbc0038I Pass 139: (12.73 seconds) suminf.   13.71765 (172) obj. 74246.1 iterations 498
Cbc0038I Pass 140: (12.75 seconds) suminf.   12.71248 (163) obj. 74246.1 iterations 81
Cbc0038I Pass 141: (12.87 seconds) suminf.   14.01930 (156) obj. 74246.1 iterations 691
Cbc0038I Pass 142: (12.89 seconds) suminf.   12.18546 (148) obj. 74246.1 iterations 98
Cbc0038I Pass 143: (12.98 seconds) suminf.    9.27847 (130) obj. 74246.1 iterations 533
Cbc0038I Pass 144: (12.99 seconds) suminf.    8.29851 (127) obj. 74246.1 iterations 67
Cbc0038I Pass 145: (13.07 seconds) suminf.    6.53527 (100) obj. 74246.1 iterations 511
Cbc0038I Pass 146: (13.08 seconds) suminf.    6.08124 (99) obj. 74246.1 iterations 21
Cbc0038I Pass 147: (13.11 seconds) suminf.    7.83481 (80) obj. 74246.1 iterations 183
Cbc0038I Pass 148: (13.13 seconds) suminf.    6.01281 (85) obj. 74246.1 iterations 83
Cbc0038I Pass 149: (13.14 seconds) suminf.    5.96571 (80) obj. 74246.1 iterations 56
Cbc0038I Pass 150: (13.28 seconds) suminf.    5.28764 (76) obj. 74246.1 iterations 866
Cbc0038I Pass 151: (13.30 seconds) suminf.    5.04890 (77) obj. 74246.1 iterations 92
Cbc0038I Pass 152: (13.36 seconds) suminf.    7.11852 (81) obj. 74246.1 iterations 326
Cbc0038I Pass 153: (13.37 seconds) suminf.    2.94079 (71) obj. 74246.1 iterations 83
Cbc0038I Pass 154: (13.38 seconds) suminf.    2.94079 (71) obj. 74246.1 iterations 10
Cbc0038I Pass 155: (13.49 seconds) suminf.    6.67919 (76) obj. 74246.1 iterations 654
Cbc0038I Pass 156: (13.50 seconds) suminf.    5.37152 (64) obj. 74246.1 iterations 52
Cbc0038I Pass 157: (13.72 seconds) suminf.    4.61719 (36) obj. 74246.1 iterations 1135
Cbc0038I Pass 158: (13.73 seconds) suminf.    4.61719 (36) obj. 74246.1 iterations 25
Cbc0038I Pass 159: (13.75 seconds) suminf.    1.79031 (19) obj. 74246.1 iterations 96
Cbc0038I Pass 160: (13.76 seconds) suminf.    1.79031 (19) obj. 74246.1 iterations 6
Cbc0038I Pass 161: (13.82 seconds) suminf.    2.63603 (19) obj. 74246.1 iterations 273
Cbc0038I Pass 162: (13.86 seconds) suminf.    2.41084 (52) obj. 74246.1 iterations 194
Cbc0038I Pass 163: (14.01 seconds) suminf.    5.39755 (66) obj. 74246.1 iterations 862
Cbc0038I Pass 164: (14.14 seconds) suminf.    2.16394 (41) obj. 74246.1 iterations 767
Cbc0038I Pass 165: (14.15 seconds) suminf.    1.96352 (18) obj. 74246.1 iterations 20
Cbc0038I Pass 166: (14.25 seconds) suminf.    2.50367 (20) obj. 74246.1 iterations 557
Cbc0038I Pass 167: (14.36 seconds) suminf.    2.01891 (22) obj. 74246.1 iterations 470
Cbc0038I Pass 168: (14.37 seconds) suminf.    1.95038 (21) obj. 74246.1 iterations 24
Cbc0038I Pass 169: (14.63 seconds) suminf.   61.17745 (329) obj. 74246.1 iterations 1395
Cbc0038I No solution found this major pass
Cbc0038I Before mini branch and bound, 227 integers at bound fixed and 0 continuous
Cbc0038I Full problem 4657 rows 1399 columns, reduced to 4101 rows 1172 columns - 139 fixed gives 2863, 809 - still too large
Cbc0038I Mini branch and bound did not improve solution (16.15 seconds)
Cbc0038I After 16.15 seconds - Feasibility pump exiting with objective of 77824 - took 12.92 seconds
Cbc0012I Integer solution of 77824 found by feasibility pump after 0 iterations and 0 nodes (16.15 seconds)
Cbc0031I 6 added rows had average density of 3.5
Cbc0013I At root node, 6 cuts changed objective from 42053.569 to 42085.544 in 2 passes
Cbc0014I Cut generator 0 (Probing) - 0 row cuts average 0.0 elements, 2 column cuts (2 active)  in 0.024 seconds - new frequency is 1
Cbc0014I Cut generator 1 (Gomory) - 3 row cuts average 4.0 elements, 0 column cuts (0 active)  in 0.124 seconds - new frequency is 1
Cbc0014I Cut generator 2 (Knapsack) - 0 row cuts average 0.0 elements, 0 column cuts (0 active)  in 0.006 seconds - new frequency is -100
Cbc0014I Cut generator 3 (Clique) - 0 row cuts average 0.0 elements, 0 column cuts (0 active)  in 0.007 seconds - new frequency is -100
Cbc0014I Cut generator 4 (MixedIntegerRounding2) - 0 row cuts average 0.0 elements, 0 column cuts (0 active)  in 0.004 seconds - new frequency is -100
Cbc0014I Cut generator 5 (FlowCover) - 0 row cuts average 0.0 elements, 0 column cuts (0 active)  in 0.003 seconds - new frequency is -100
Cbc0014I Cut generator 6 (TwoMirCuts) - 7 row cuts average 3.3 elements, 0 column cuts (0 active)  in 0.097 seconds - new frequency is -100
Cbc0014I Cut generator 7 (ZeroHalf) - 2 row cuts average 4.5 elements, 0 column cuts (0 active)  in 0.119 seconds - new frequency is -100
Cbc0010I After 0 nodes, 1 on tree, 77824 best solution, best possible 42085.544 (18.45 seconds)
Cbc0010I After 100 nodes, 4 on tree, 77824 best solution, best possible 42085.544 (73.74 seconds)
Cbc0010I After 200 nodes, 3 on tree, 77824 best solution, best possible 42085.544 (140.59 seconds)
Cbc0010I After 300 nodes, 5 on tree, 77824 best solution, best possible 42085.544 (208.79 seconds)
Cbc0010I After 400 nodes, 4 on tree, 77824 best solution, best possible 42085.544 (271.25 seconds)
Cbc0010I After 500 nodes, 4 on tree, 77824 best solution, best possible 42085.544 (333.69 seconds)
Cbc0010I After 600 nodes, 4 on tree, 77824 best solution, best possible 42085.544 (394.56 seconds)
Cbc0010I After 700 nodes, 4 on tree, 77824 best solution, best possible 42085.544 (453.22 seconds)
Cbc0010I After 800 nodes, 5 on tree, 77824 best solution, best possible 42085.544 (510.51 seconds)
Cbc0010I After 900 nodes, 5 on tree, 77824 best solution, best possible 42085.544 (567.80 seconds)
Cbc0010I After 1000 nodes, 4 on tree, 77824 best solution, best possible 42085.544 (625.90 seconds)
Cbc0010I After 1100 nodes, 9 on tree, 77824 best solution, best possible 42085.544 (686.16 seconds)
Cbc0010I After 1200 nodes, 12 on tree, 77824 best solution, best possible 42085.544 (737.47 seconds)
Cbc0010I After 1300 nodes, 13 on tree, 77824 best solution, best possible 42085.544 (792.34 seconds)
Cbc0010I After 1400 nodes, 14 on tree, 77824 best solution, best possible 42085.544 (851.11 seconds)
Cbc0010I After 1500 nodes, 25 on tree, 77824 best solution, best possible 42085.544 (909.26 seconds)
Cbc0010I After 1600 nodes, 31 on tree, 77824 best solution, best possible 42085.544 (966.41 seconds)
Cbc0010I After 1700 nodes, 36 on tree, 77824 best solution, best possible 42085.544 (1017.02 seconds)
Cbc0010I After 1800 nodes, 40 on tree, 77824 best solution, best possible 42085.544 (1087.37 seconds)
Cbc0010I After 1900 nodes, 43 on tree, 77824 best solution, best possible 42085.544 (1158.06 seconds)
Cbc0010I After 2000 nodes, 45 on tree, 77824 best solution, best possible 42085.544 (1224.89 seconds)
Cbc0010I After 2100 nodes, 46 on tree, 77824 best solution, best possible 42085.544 (1304.18 seconds)
Cbc0010I After 2200 nodes, 47 on tree, 77824 best solution, best possible 42085.544 (1388.57 seconds)
Cbc0010I After 2300 nodes, 49 on tree, 77824 best solution, best possible 42085.544 (1477.93 seconds)
Cbc0010I After 2400 nodes, 49 on tree, 77824 best solution, best possible 42085.544 (1572.64 seconds)
Cbc0010I After 2500 nodes, 52 on tree, 77824 best solution, best possible 42085.544 (1663.60 seconds)
Cbc0010I After 2600 nodes, 57 on tree, 77824 best solution, best possible 42085.544 (1750.02 seconds)
Cbc0020I Exiting on maximum time
Cbc0005I Partial search - best objective 77824 (best possible 42085.544), took 3976576 iterations and 2652 nodes (1800.56 seconds)
Cbc0032I Strong branching done 8204 times (756558 iterations), fathomed 41 nodes and fixed 14 variables
Cbc0035I Maximum depth 790, 0 variables fixed on reduced cost
Cuts at root node changed objective from 42053.6 to 42085.5
Probing was tried 336 times and created 4660 cuts of which 0 were active after adding rounds of cuts (1.911 seconds)
Gomory was tried 222 times and created 42 cuts of which 0 were active after adding rounds of cuts (2.500 seconds)
Knapsack was tried 2 times and created 0 cuts of which 0 were active after adding rounds of cuts (0.006 seconds)
Clique was tried 2 times and created 0 cuts of which 0 were active after adding rounds of cuts (0.007 seconds)
MixedIntegerRounding2 was tried 2 times and created 0 cuts of which 0 were active after adding rounds of cuts (0.004 seconds)
FlowCover was tried 2 times and created 0 cuts of which 0 were active after adding rounds of cuts (0.003 seconds)
TwoMirCuts was tried 2 times and created 7 cuts of which 0 were active after adding rounds of cuts (0.097 seconds)
ZeroHalf was tried 2 times and created 2 cuts of which 0 were active after adding rounds of cuts (0.119 seconds)

Result - Stopped on time limit

Objective value:                77824.00000000
Lower bound:                    42085.544
Gap:                            0.85
Enumerated nodes:               2652
Total iterations:               3976576
Time (CPU seconds):             1800.95
Time (Wallclock seconds):       1801.51

Total time (CPU seconds):       1800.97   (Wallclock seconds):       1801.53

